WARNING: for repeatability, setting FPU to use double precision
============================[ Problem Statistics ]=============================
|                                                                             |
|  Number of variables:            50                                         |
|  Number of clauses:             218                                         |
|  Parse time:                   0.00 s                                       |
|                                                                             |
============================[ Search Statistics ]==============================
| Conflicts |          ORIGINAL         |          LEARNT          | Progress |
|           |    Vars  Clauses Literals |    Limit  Clauses Lit/Cl |          |
===============================================================================
===============================================================================
restarts              : 1
conflicts             : 19             (13788 /sec)
decisions             : 31             (0.00 % random) (22496 /sec)
propagations          : 302            (219158 /sec)
conflict literals     : 92             (5.15 % deleted)
Memory used           : 20.00 MB
CPU time              : 0.001378 s

SATISFIABLE
